NAME          DCAP_2_4_3_500_SS231
ROWS
 N  OBJ
 L  CON1
 L  CON2
 L  CON3
 L  CON4
 L  CON5
 L  CON6
 L  CON7
 L  CON8
 L  CON9
 L  CON10
 L  CON11
 L  CON12
 E  CON13
 E  CON14
 E  CON15
 E  CON16
 E  CON17
 E  CON18
 E  CON19
 E  CON20
 E  CON21
 E  CON22
 E  CON23
 E  CON24
COLUMNS
    x[1,1]    OBJ       6.180167      CON1      1.000000    
    x[1,1]    CON7      -1.000000     CON8      -1.000000   
    x[1,1]    CON9      -1.000000   
    x[1,2]    OBJ       6.563535      CON2      1.000000    
    x[1,2]    CON8      -1.000000     CON9      -1.000000   
    x[1,3]    OBJ       7.443064      CON3      1.000000    
    x[1,3]    CON9      -1.000000   
    x[2,1]    OBJ       6.732585      CON4      1.000000    
    x[2,1]    CON10     -1.000000     CON11     -1.000000   
    x[2,1]    CON12     -1.000000   
    x[2,2]    OBJ       5.039546      CON5      1.000000    
    x[2,2]    CON11     -1.000000     CON12     -1.000000   
    x[2,3]    OBJ       6.054841      CON6      1.000000    
    x[2,3]    CON12     -1.000000   
    MARKER    'MARKER'                'INTORG'
    u[1,1]    OBJ       48.076654     CON1      -1.000000   
    u[1,2]    OBJ       20.066487     CON2      -1.000000   
    u[1,3]    OBJ       32.230043     CON3      -1.000000   
    u[2,1]    OBJ       49.996186     CON4      -1.000000   
    u[2,2]    OBJ       49.466655     CON5      -1.000000   
    u[2,3]    OBJ       27.484319     CON6      -1.000000   
    y[1,1,1]  OBJ       9.305090      CON7      0.766897    
    y[1,1,1]  CON13     1.000000    
    y[1,1,2]  OBJ       7.799026      CON8      1.269192    
    y[1,1,2]  CON14     1.000000    
    y[1,1,3]  OBJ       9.997266      CON9      0.744835    
    y[1,1,3]  CON15     1.000000    
    y[1,2,1]  OBJ       8.030209      CON7      0.572552    
    y[1,2,1]  CON16     1.000000    
    y[1,2,2]  OBJ       9.260194      CON8      0.781915    
    y[1,2,2]  CON17     1.000000    
    y[1,2,3]  OBJ       7.274588      CON9      0.663403    
    y[1,2,3]  CON18     1.000000    
    y[1,3,1]  OBJ       7.955391      CON7      0.680704    
    y[1,3,1]  CON19     1.000000    
    y[1,3,2]  OBJ       6.563513      CON8      1.338695    
    y[1,3,2]  CON20     1.000000    
    y[1,3,3]  OBJ       6.302439      CON9      0.626109    
    y[1,3,3]  CON21     1.000000    
    y[1,4,1]  OBJ       6.015475      CON7      1.155467    
    y[1,4,1]  CON22     1.000000    
    y[1,4,2]  OBJ       5.103432      CON8      0.628063    
    y[1,4,2]  CON23     1.000000    
    y[1,4,3]  OBJ       5.740339      CON9      0.962169    
    y[1,4,3]  CON24     1.000000    
    y[2,1,1]  OBJ       7.557049      CON10     0.766897    
    y[2,1,1]  CON13     1.000000    
    y[2,1,2]  OBJ       6.190836      CON11     1.269192    
    y[2,1,2]  CON14     1.000000    
    y[2,1,3]  OBJ       9.688821      CON12     0.744835    
    y[2,1,3]  CON15     1.000000    
    y[2,2,1]  OBJ       8.056692      CON10     0.572552    
    y[2,2,1]  CON16     1.000000    
    y[2,2,2]  OBJ       6.937951      CON11     0.781915    
    y[2,2,2]  CON17     1.000000    
    y[2,2,3]  OBJ       5.551007      CON12     0.663403    
    y[2,2,3]  CON18     1.000000    
    y[2,3,1]  OBJ       6.258950      CON10     0.680704    
    y[2,3,1]  CON19     1.000000    
    y[2,3,2]  OBJ       7.741710      CON11     1.338695    
    y[2,3,2]  CON20     1.000000    
    y[2,3,3]  OBJ       7.935643      CON12     0.626109    
    y[2,3,3]  CON21     1.000000    
    y[2,4,1]  OBJ       5.392275      CON10     1.155467    
    y[2,4,1]  CON22     1.000000    
    y[2,4,2]  OBJ       7.240739      CON11     0.628063    
    y[2,4,2]  CON23     1.000000    
    y[2,4,3]  OBJ       8.052465      CON12     0.962169    
    y[2,4,3]  CON24     1.000000    
    z[1,1]    OBJ       867.584613    CON13     1.000000    
    z[1,2]    OBJ       995.276496    CON14     1.000000    
    z[1,3]    OBJ       746.699497    CON15     1.000000    
    z[2,1]    OBJ       945.270309    CON16     1.000000    
    z[2,2]    OBJ       922.841494    CON17     1.000000    
    z[2,3]    OBJ       833.956340    CON18     1.000000    
    z[3,1]    OBJ       772.636111    CON19     1.000000    
    z[3,2]    OBJ       835.140372    CON20     1.000000    
    z[3,3]    OBJ       916.028621    CON21     1.000000    
    z[4,1]    OBJ       631.262084    CON22     1.000000    
    z[4,2]    OBJ       700.868675    CON23     1.000000    
    z[4,3]    OBJ       701.021040    CON24     1.000000    
    MARKER    'MARKER'                 'INTEND'
RHS
    RHS       CON1      -0.000000     CON2      -0.000000   
    RHS       CON3      -0.000000     CON4      -0.000000   
    RHS       CON5      -0.000000     CON6      -0.000000   
    RHS       CON7      -0.000000     CON8      -0.000000   
    RHS       CON9      -0.000000     CON10     -0.000000   
    RHS       CON11     -0.000000     CON12     -0.000000   
    RHS       CON13     1.000000      CON14     1.000000    
    RHS       CON15     1.000000      CON16     1.000000    
    RHS       CON17     1.000000      CON18     1.000000    
    RHS       CON19     1.000000      CON20     1.000000    
    RHS       CON21     1.000000      CON22     1.000000    
    RHS       CON23     1.000000      CON24     1.000000    
BOUNDS
 BV BOUND     u[1,1]  
 BV BOUND     u[1,2]  
 BV BOUND     u[1,3]  
 BV BOUND     u[2,1]  
 BV BOUND     u[2,2]  
 BV BOUND     u[2,3]  
 BV BOUND     y[1,1,1]
 BV BOUND     y[1,1,2]
 BV BOUND     y[1,1,3]
 BV BOUND     y[1,2,1]
 BV BOUND     y[1,2,2]
 BV BOUND     y[1,2,3]
 BV BOUND     y[1,3,1]
 BV BOUND     y[1,3,2]
 BV BOUND     y[1,3,3]
 BV BOUND     y[1,4,1]
 BV BOUND     y[1,4,2]
 BV BOUND     y[1,4,3]
 BV BOUND     y[2,1,1]
 BV BOUND     y[2,1,2]
 BV BOUND     y[2,1,3]
 BV BOUND     y[2,2,1]
 BV BOUND     y[2,2,2]
 BV BOUND     y[2,2,3]
 BV BOUND     y[2,3,1]
 BV BOUND     y[2,3,2]
 BV BOUND     y[2,3,3]
 BV BOUND     y[2,4,1]
 BV BOUND     y[2,4,2]
 BV BOUND     y[2,4,3]
 BV BOUND     z[1,1]  
 BV BOUND     z[1,2]  
 BV BOUND     z[1,3]  
 BV BOUND     z[2,1]  
 BV BOUND     z[2,2]  
 BV BOUND     z[2,3]  
 BV BOUND     z[3,1]  
 BV BOUND     z[3,2]  
 BV BOUND     z[3,3]  
 BV BOUND     z[4,1]  
 BV BOUND     z[4,2]  
 BV BOUND     z[4,3]  
ENDATA
